60
1 0 58
2 0 1
2 1 18
3 0 80
3 1 22
3 2 37
4 0 23
4 1 57
4 2 74
4 3 71
5 0 78
5 1 46
5 2 75
5 3 39
5 4 34
6 0 25
6 1 62
6 2 43
6 3 62
6 4 76
6 5 32
7 0 58
7 1 56
7 2 57
7 3 4
7 4 62
7 5 49
7 6 7
8 0 19
8 1 2
8 2 76
8 3 52
8 4 71
8 5 27
8 6 75
8 7 43
9 0 62
9 1 64
9 2 60
9 3 58
9 4 51
9 5 78
9 6 11
9 7 22
9 8 61
10 0 45
10 1 50
10 2 45
10 3 70
10 4 1
10 5 5
10 6 61
10 7 40
10 8 16
10 9 22
11 0 33
11 1 23
11 2 12
11 3 57
11 4 53
11 5 79
11 6 60
11 7 48
11 8 50
11 9 65
11 10 55
12 0 80
12 1 65
12 2 55
12 3 74
12 4 57
12 5 58
12 6 38
12 7 74
12 8 69
12 9 74
12 10 12
12 11 74
13 0 58
13 1 26
13 2 46
13 3 14
13 4 15
13 5 33
13 6 25
13 7 11
13 8 48
13 9 45
13 10 51
13 11 57
13 12 21
14 0 78
14 1 56
14 2 15
14 3 53
14 4 37
14 5 44
14 6 38
14 7 4
14 8 34
14 9 19
14 10 61
14 11 23
14 12 58
14 13 46
15 0 59
15 1 65
15 2 10
15 3 80
15 4 68
15 5 15
15 6 47
15 7 48
15 8 35
15 9 58
15 10 58
15 11 43
15 12 53
15 13 72
15 14 80
16 0 8
16 1 37
16 2 65
16 3 46
16 4 18
16 5 6
16 6 66
16 7 70
16 8 33
16 9 58
16 10 70
16 11 25
16 12 5
16 13 60
16 14 43
16 15 55
17 0 67
17 1 6
17 2 49
17 3 15
17 4 47
17 5 57
17 6 51
17 7 10
17 8 71
17 9 1
17 10 72
17 11 51
17 12 19
17 13 49
17 14 62
17 15 13
17 16 34
18 0 26
18 1 22
18 2 35
18 3 60
18 4 39
18 5 29
18 6 5
18 7 77
18 8 34
18 9 28
18 10 18
18 11 9
18 12 17
18 13 28
18 14 71
18 15 66
18 16 53
18 17 55
19 0 49
19 1 39
19 2 30
19 3 58
19 4 72
19 5 43
19 6 23
19 7 41
19 8 44
19 9 56
19 10 74
19 11 10
19 12 41
19 13 78
19 14 38
19 15 65
19 16 29
19 17 55
19 18 17
20 0 5
20 1 9
20 2 65
20 3 78
20 4 30
20 5 8
20 6 42
20 7 64
20 8 28
20 9 29
20 10 54
20 11 60
20 12 16
20 13 32
20 14 37
20 15 51
20 16 9
20 17 39
20 18 55
20 19 19
21 0 62
21 1 62
21 2 34
21 3 5
21 4 4
21 5 1
21 6 53
21 7 64
21 8 64
21 9 36
21 10 50
21 11 12
21 12 12
21 13 33
21 14 48
21 15 44
21 16 61
21 17 38
21 18 48
21 19 70
21 20 65
22 0 23
22 1 2
22 2 36
22 3 76
22 4 43
22 5 28
22 6 48
22 7 25
22 8 35
22 9 37
22 10 68
22 11 23
22 12 76
22 13 76
22 14 31
22 15 57
22 16 33
22 17 65
22 18 21
22 19 54
22 20 33
22 21 12
23 0 58
23 1 14
23 2 4
23 3 72
23 4 41
23 5 9
23 6 72
23 7 49
23 8 76
23 9 45
23 10 33
23 11 71
23 12 15
23 13 20
23 14 27
23 15 1
23 16 9
23 17 49
23 18 58
23 19 66
23 20 40
23 21 73
23 22 31
24 0 64
24 1 51
24 2 26
24 3 62
24 4 7
24 5 28
24 6 72
24 7 2
24 8 69
24 9 23
24 10 72
24 11 18
24 12 6
24 13 69
24 14 61
24 15 27
24 16 65
24 17 2
24 18 71
24 19 34
24 20 46
24 21 9
24 22 72
24 23 72
25 0 18
25 1 11
25 2 80
25 3 11
25 4 42
25 5 30
25 6 55
25 7 42
25 8 32
25 9 18
25 10 79
25 11 65
25 12 35
25 13 36
25 14 65
25 15 45
25 16 15
25 17 42
25 18 18
25 19 54
25 20 18
25 21 46
25 22 54
25 23 44
25 24 22
26 0 6
26 1 35
26 2 32
26 3 49
26 4 37
26 5 3
26 6 40
26 7 44
26 8 15
26 9 2
26 10 55
26 11 79
26 12 70
26 13 58
26 14 26
26 15 76
26 16 59
26 17 48
26 18 24
26 19 75
26 20 22
26 21 45
26 22 10
26 23 26
26 24 69
26 25 9
27 0 2
27 1 6
27 2 6
27 3 26
27 4 44
27 5 65
27 6 32
27 7 10
27 8 15
27 9 49
27 10 1
27 11 3
27 12 77
27 13 25
27 14 57
27 15 62
27 16 1
27 17 18
27 18 2
27 19 9
27 20 55
27 21 30
27 22 26
27 23 67
27 24 40
27 25 58
27 26 20
28 0 80
28 1 10
28 2 12
28 3 72
28 4 38
28 5 22
28 6 72
28 7 48
28 8 54
28 9 77
28 10 72
28 11 5
28 12 4
28 13 66
28 14 17
28 15 36
28 16 37
28 17 8
28 18 34
28 19 42
28 20 57
28 21 62
28 22 60
28 23 70
28 24 67
28 25 66
28 26 13
28 27 4
29 0 77
29 1 46
29 2 74
29 3 74
29 4 50
29 5 53
29 6 11
29 7 61
29 8 5
29 9 9
29 10 33
29 11 49
29 12 79
29 13 37
29 14 45
29 15 22
29 16 32
29 17 73
29 18 79
29 19 65
29 20 75
29 21 12
29 22 30
29 23 16
29 24 48
29 25 7
29 26 37
29 27 73
29 28 57
30 0 57
30 1 29
30 2 29
30 3 63
30 4 75
30 5 40
30 6 34
30 7 33
30 8 74
30 9 19
30 10 43
30 11 33
30 12 34
30 13 55
30 14 17
30 15 62
30 16 13
30 17 24
30 18 65
30 19 27
30 20 5
30 21 26
30 22 68
30 23 7
30 24 8
30 25 4
30 26 36
30 27 37
30 28 72
30 29 45
31 0 37
31 1 17
31 2 38
31 3 31
31 4 39
31 5 45
31 6 59
31 7 20
31 8 61
31 9 67
31 10 46
31 11 62
31 12 56
31 13 57
31 14 47
31 15 3
31 16 45
31 17 59
31 18 2
31 19 78
31 20 33
31 21 74
31 22 24
31 23 27
31 24 38
31 25 31
31 26 13
31 27 57
31 28 46
31 29 32
31 30 33
32 0 38
32 1 8
32 2 35
32 3 60
32 4 2
32 5 62
32 6 71
32 7 17
32 8 48
32 9 26
32 10 51
32 11 16
32 12 33
32 13 39
32 14 58
32 15 77
32 16 76
32 17 20
32 18 50
32 19 20
32 20 57
32 21 16
32 22 3
32 23 35
32 24 64
32 25 13
32 26 10
32 27 13
32 28 70
32 29 69
32 30 46
32 31 41
33 0 57
33 1 3
33 2 2
33 3 14
33 4 20
33 5 17
33 6 50
33 7 10
33 8 49
33 9 20
33 10 68
33 11 57
33 12 79
33 13 25
33 14 56
33 15 24
33 16 78
33 17 59
33 18 12
33 19 60
33 20 69
33 21 5
33 22 20
33 23 41
33 24 80
33 25 25
33 26 22
33 27 73
33 28 15
33 29 78
33 30 4
33 31 9
33 32 68
34 0 46
34 1 80
34 2 59
34 3 16
34 4 58
34 5 64
34 6 10
34 7 66
34 8 68
34 9 50
34 10 57
34 11 36
34 12 15
34 13 24
34 14 5
34 15 53
34 16 58
34 17 73
34 18 37
34 19 66
34 20 10
34 21 59
34 22 13
34 23 57
34 24 58
34 25 33
34 26 54
34 27 32
34 28 28
34 29 61
34 30 49
34 31 30
34 32 37
34 33 60
35 0 17
35 1 4
35 2 53
35 3 40
35 4 16
35 5 16
35 6 78
35 7 16
35 8 76
35 9 64
35 10 8
35 11 35
35 12 73
35 13 32
35 14 49
35 15 23
35 16 65
35 17 80
35 18 3
35 19 19
35 20 6
35 21 5
35 22 75
35 23 52
35 24 42
35 25 17
35 26 52
35 27 29
35 28 25
35 29 47
35 30 24
35 31 70
35 32 42
35 33 73
35 34 12
36 0 62
36 1 6
36 2 79
36 3 38
36 4 61
36 5 54
36 6 75
36 7 36
36 8 19
36 9 10
36 10 33
36 11 68
36 12 27
36 13 9
36 14 56
36 15 39
36 16 69
36 17 29
36 18 33
36 19 54
36 20 37
36 21 61
36 22 17
36 23 8
36 24 16
36 25 60
36 26 44
36 27 80
36 28 11
36 29 16
36 30 61
36 31 43
36 32 46
36 33 48
36 34 54
36 35 45
37 0 27
37 1 9
37 2 48
37 3 35
37 4 78
37 5 72
37 6 47
37 7 30
37 8 59
37 9 75
37 10 4
37 11 47
37 12 8
37 13 77
37 14 28
37 15 21
37 16 56
37 17 27
37 18 60
37 19 77
37 20 12
37 21 14
37 22 79
37 23 11
37 24 25
37 25 61
37 26 28
37 27 60
37 28 51
37 29 14
37 30 70
37 31 20
37 32 63
37 33 63
37 34 21
37 35 38
37 36 69
38 0 70
38 1 33
38 2 1
38 3 51
38 4 48
38 5 70
38 6 17
38 7 52
38 8 5
38 9 38
38 10 79
38 11 32
38 12 20
38 13 72
38 14 74
38 15 45
38 16 77
38 17 12
38 18 32
38 19 15
38 20 10
38 21 6
38 22 60
38 23 29
38 24 11
38 25 18
38 26 58
38 27 48
38 28 80
38 29 3
38 30 47
38 31 9
38 32 37
38 33 73
38 34 71
38 35 49
38 36 37
38 37 51
39 0 40
39 1 31
39 2 42
39 3 34
39 4 44
39 5 61
39 6 76
39 7 25
39 8 37
39 9 12
39 10 75
39 11 62
39 12 75
39 13 28
39 14 79
39 15 72
39 16 75
39 17 62
39 18 14
39 19 23
39 20 62
39 21 70
39 22 16
39 23 47
39 24 67
39 25 56
39 26 24
39 27 39
39 28 66
39 29 43
39 30 35
39 31 24
39 32 16
39 33 16
39 34 19
39 35 57
39 36 36
39 37 1
39 38 58
40 0 11
40 1 23
40 2 74
40 3 70
40 4 75
40 5 66
40 6 15
40 7 23
40 8 23
40 9 42
40 10 33
40 11 60
40 12 38
40 13 17
40 14 16
40 15 31
40 16 4
40 17 56
40 18 28
40 19 51
40 20 71
40 21 58
40 22 43
40 23 26
40 24 23
40 25 6
40 26 78
40 27 45
40 28 49
40 29 30
40 30 27
40 31 12
40 32 76
40 33 61
40 34 6
40 35 66
40 36 80
40 37 36
40 38 60
40 39 44
41 0 7
41 1 76
41 2 16
41 3 39
41 4 78
41 5 18
41 6 45
41 7 44
41 8 73
41 9 40
41 10 36
41 11 57
41 12 5
41 13 4
41 14 65
41 15 20
41 16 28
41 17 29
41 18 34
41 19 58
41 20 12
41 21 51
41 22 60
41 23 37
41 24 51
41 25 21
41 26 69
41 27 49
41 28 41
41 29 72
41 30 55
41 31 29
41 32 35
41 33 23
41 34 32
41 35 46
41 36 47
41 37 69
41 38 22
41 39 2
41 40 74
42 0 64
42 1 72
42 2 18
42 3 10
42 4 12
42 5 53
42 6 5
42 7 38
42 8 9
42 9 5
42 10 20
42 11 76
42 12 48
42 13 3
42 14 77
42 15 25
42 16 51
42 17 47
42 18 11
42 19 8
42 20 32
42 21 8
42 22 55
42 23 53
42 24 56
42 25 38
42 26 15
42 27 57
42 28 28
42 29 65
42 30 77
42 31 2
42 32 63
42 33 5
42 34 53
42 35 16
42 36 56
42 37 21
42 38 60
42 39 65
42 40 51
42 41 5
43 0 26
43 1 9
43 2 80
43 3 54
43 4 37
43 5 15
43 6 46
43 7 32
43 8 69
43 9 29
43 10 55
43 11 40
43 12 29
43 13 16
43 14 61
43 15 4
43 16 70
43 17 16
43 18 47
43 19 66
43 20 52
43 21 17
43 22 61
43 23 53
43 24 64
43 25 30
43 26 8
43 27 53
43 28 65
43 29 46
43 30 72
43 31 16
43 32 17
43 33 17
43 34 35
43 35 53
43 36 51
43 37 43
43 38 80
43 39 24
43 40 14
43 41 68
43 42 35
44 0 57
44 1 35
44 2 41
44 3 74
44 4 61
44 5 1
44 6 20
44 7 37
44 8 77
44 9 80
44 10 40
44 11 34
44 12 55
44 13 2
44 14 45
44 15 73
44 16 53
44 17 58
44 18 75
44 19 75
44 20 57
44 21 56
44 22 9
44 23 60
44 24 40
44 25 38
44 26 46
44 27 44
44 28 79
44 29 66
44 30 68
44 31 53
44 32 59
44 33 52
44 34 76
44 35 71
44 36 16
44 37 10
44 38 32
44 39 28
44 40 64
44 41 75
44 42 62
44 43 31
45 0 22
45 1 61
45 2 36
45 3 18
45 4 59
45 5 24
45 6 73
45 7 20
45 8 20
45 9 36
45 10 75
45 11 32
45 12 8
45 13 52
45 14 29
45 15 71
45 16 64
45 17 24
45 18 33
45 19 12
45 20 56
45 21 59
45 22 57
45 23 5
45 24 63
45 25 29
45 26 27
45 27 35
45 28 60
45 29 60
45 30 59
45 31 40
45 32 53
45 33 75
45 34 33
45 35 5
45 36 70
45 37 8
45 38 28
45 39 17
45 40 62
45 41 36
45 42 74
45 43 75
45 44 50
46 0 76
46 1 56
46 2 13
46 3 47
46 4 21
46 5 15
46 6 64
46 7 60
46 8 75
46 9 58
46 10 72
46 11 59
46 12 71
46 13 66
46 14 15
46 15 78
46 16 45
46 17 63
46 18 27
46 19 4
46 20 22
46 21 27
46 22 68
46 23 46
46 24 69
46 25 58
46 26 37
46 27 36
46 28 31
46 29 30
46 30 26
46 31 35
46 32 55
46 33 4
46 34 35
46 35 50
46 36 73
46 37 26
46 38 7
46 39 76
46 40 27
46 41 43
46 42 28
46 43 71
46 44 24
46 45 54
47 0 57
47 1 24
47 2 58
47 3 74
47 4 40
47 5 44
47 6 66
47 7 52
47 8 58
47 9 57
47 10 70
47 11 12
47 12 30
47 13 42
47 14 6
47 15 44
47 16 35
47 17 3
47 18 7
47 19 37
47 20 2
47 21 45
47 22 35
47 23 35
47 24 37
47 25 14
47 26 24
47 27 19
47 28 20
47 29 54
47 30 77
47 31 46
47 32 16
47 33 7
47 34 15
47 35 56
47 36 11
47 37 3
47 38 22
47 39 9
47 40 1
47 41 35
47 42 34
47 43 15
47 44 29
47 45 24
47 46 69
48 0 43
48 1 30
48 2 71
48 3 55
48 4 35
48 5 77
48 6 22
48 7 34
48 8 36
48 9 58
48 10 6
48 11 69
48 12 32
48 13 60
48 14 77
48 15 43
48 16 1
48 17 25
48 18 12
48 19 75
48 20 5
48 21 21
48 22 10
48 23 33
48 24 63
48 25 49
48 26 6
48 27 12
48 28 67
48 29 31
48 30 1
48 31 1
48 32 19
48 33 75
48 34 32
48 35 61
48 36 68
48 37 29
48 38 64
48 39 16
48 40 43
48 41 39
48 42 74
48 43 11
48 44 72
48 45 54
48 46 5
48 47 21
49 0 18
49 1 46
49 2 57
49 3 33
49 4 25
49 5 17
49 6 79
49 7 40
49 8 76
49 9 34
49 10 5
49 11 41
49 12 31
49 13 21
49 14 56
49 15 10
49 16 14
49 17 80
49 18 64
49 19 61
49 20 71
49 21 70
49 22 17
49 23 24
49 24 3
49 25 40
49 26 42
49 27 60
49 28 73
49 29 79
49 30 40
49 31 37
49 32 4
49 33 65
49 34 19
49 35 69
49 36 76
49 37 3
49 38 28
49 39 56
49 40 75
49 41 56
49 42 67
49 43 11
49 44 29
49 45 14
49 46 14
49 47 45
49 48 38
50 0 75
50 1 2
50 2 51
50 3 72
50 4 3
50 5 46
50 6 70
50 7 26
50 8 11
50 9 13
50 10 16
50 11 61
50 12 12
50 13 5
50 14 70
50 15 68
50 16 43
50 17 30
50 18 66
50 19 53
50 20 70
50 21 28
50 22 37
50 23 12
50 24 40
50 25 58
50 26 21
50 27 29
50 28 80
50 29 68
50 30 67
50 31 60
50 32 1
50 33 54
50 34 24
50 35 27
50 36 58
50 37 66
50 38 4
50 39 57
50 40 61
50 41 37
50 42 25
50 43 69
50 44 44
50 45 46
50 46 9
50 47 37
50 48 29
50 49 69
51 0 37
51 1 13
51 2 35
51 3 34
51 4 78
51 5 68
51 6 8
51 7 72
51 8 10
51 9 5
51 10 57
51 11 60
51 12 79
51 13 79
51 14 61
51 15 69
51 16 3
51 17 54
51 18 42
51 19 54
51 20 30
51 21 35
51 22 10
51 23 26
51 24 49
51 25 48
51 26 73
51 27 73
51 28 4
51 29 3
51 30 32
51 31 35
51 32 1
51 33 11
51 34 24
51 35 22
51 36 39
51 37 11
51 38 28
51 39 18
51 40 32
51 41 4
51 42 70
51 43 24
51 44 5
51 45 39
51 46 39
51 47 14
51 48 71
51 49 21
51 50 16
52 0 40
52 1 16
52 2 36
52 3 66
52 4 67
52 5 58
52 6 18
52 7 54
52 8 67
52 9 16
52 10 78
52 11 54
52 12 60
52 13 13
52 14 10
52 15 36
52 16 58
52 17 65
52 18 69
52 19 11
52 20 16
52 21 43
52 22 59
52 23 76
52 24 26
52 25 35
52 26 60
52 27 45
52 28 41
52 29 4
52 30 25
52 31 78
52 32 24
52 33 10
52 34 33
52 35 50
52 36 12
52 37 65
52 38 65
52 39 35
52 40 75
52 41 15
52 42 66
52 43 43
52 44 18
52 45 39
52 46 33
52 47 44
52 48 52
52 49 53
52 50 36
52 51 61
53 0 69
53 1 19
53 2 26
53 3 60
53 4 72
53 5 22
53 6 29
53 7 70
53 8 6
53 9 26
53 10 56
53 11 8
53 12 45
53 13 27
53 14 46
53 15 75
53 16 32
53 17 78
53 18 10
53 19 28
53 20 41
53 21 7
53 22 18
53 23 3
53 24 1
53 25 68
53 26 1
53 27 36
53 28 69
53 29 7
53 30 74
53 31 27
53 32 55
53 33 67
53 34 49
53 35 67
53 36 24
53 37 76
53 38 76
53 39 21
53 40 17
53 41 39
53 42 79
53 43 10
53 44 13
53 45 6
53 46 53
53 47 16
53 48 49
53 49 50
53 50 42
53 51 39
53 52 42
54 0 70
54 1 61
54 2 30
54 3 71
54 4 63
54 5 38
54 6 44
54 7 3
54 8 70
54 9 58
54 10 18
54 11 39
54 12 57
54 13 80
54 14 76
54 15 70
54 16 31
54 17 4
54 18 71
54 19 26
54 20 54
54 21 18
54 22 30
54 23 24
54 24 3
54 25 65
54 26 24
54 27 50
54 28 74
54 29 71
54 30 25
54 31 36
54 32 64
54 33 73
54 34 24
54 35 12
54 36 73
54 37 68
54 38 16
54 39 51
54 40 75
54 41 51
54 42 33
54 43 27
54 44 53
54 45 25
54 46 29
54 47 76
54 48 42
54 49 3
54 50 53
54 51 67
54 52 68
54 53 75
55 0 28
55 1 31
55 2 60
55 3 36
55 4 74
55 5 78
55 6 15
55 7 40
55 8 4
55 9 15
55 10 66
55 11 72
55 12 36
55 13 42
55 14 30
55 15 46
55 16 10
55 17 59
55 18 62
55 19 58
55 20 74
55 21 36
55 22 27
55 23 63
55 24 26
55 25 61
55 26 55
55 27 1
55 28 49
55 29 1
55 30 14
55 31 78
55 32 8
55 33 77
55 34 78
55 35 18
55 36 3
55 37 64
55 38 22
55 39 79
55 40 7
55 41 2
55 42 1
55 43 53
55 44 69
55 45 6
55 46 16
55 47 34
55 48 66
55 49 5
55 50 64
55 51 15
55 52 21
55 53 10
55 54 54
56 0 73
56 1 38
56 2 27
56 3 2
56 4 57
56 5 27
56 6 75
56 7 32
56 8 37
56 9 54
56 10 47
56 11 13
56 12 71
56 13 20
56 14 61
56 15 1
56 16 16
56 17 31
56 18 38
56 19 76
56 20 59
56 21 26
56 22 9
56 23 58
56 24 26
56 25 79
56 26 60
56 27 65
56 28 26
56 29 59
56 30 50
56 31 19
56 32 29
56 33 17
56 34 33
56 35 72
56 36 33
56 37 32
56 38 30
56 39 25
56 40 51
56 41 38
56 42 60
56 43 66
56 44 19
56 45 19
56 46 75
56 47 47
56 48 10
56 49 72
56 50 19
56 51 8
56 52 11
56 53 59
56 54 6
56 55 2
57 0 28
57 1 68
57 2 29
57 3 31
57 4 30
57 5 78
57 6 7
57 7 55
57 8 73
57 9 13
57 10 29
57 11 21
57 12 69
57 13 56
57 14 55
57 15 9
57 16 70
57 17 58
57 18 63
57 19 73
57 20 78
57 21 10
57 22 61
57 23 75
57 24 61
57 25 79
57 26 4
57 27 23
57 28 23
57 29 51
57 30 40
57 31 21
57 32 47
57 33 56
57 34 60
57 35 20
57 36 41
57 37 18
57 38 33
57 39 10
57 40 25
57 41 39
57 42 5
57 43 11
57 44 14
57 45 76
57 46 61
57 47 65
57 48 37
57 49 66
57 50 64
57 51 23
57 52 53
57 53 73
57 54 70
57 55 19
57 56 9
58 0 63
58 1 52
58 2 4
58 3 76
58 4 37
58 5 69
58 6 14
58 7 3
58 8 14
58 9 77
58 10 57
58 11 51
58 12 67
58 13 19
58 14 47
58 15 18
58 16 31
58 17 64
58 18 75
58 19 55
58 20 79
58 21 72
58 22 53
58 23 46
58 24 62
58 25 43
58 26 7
58 27 46
58 28 72
58 29 5
58 30 15
58 31 80
58 32 51
58 33 52
58 34 5
58 35 6
58 36 8
58 37 39
58 38 32
58 39 43
58 40 59
58 41 13
58 42 7
58 43 30
58 44 52
58 45 59
58 46 27
58 47 10
58 48 39
58 49 18
58 50 75
58 51 75
58 52 21
58 53 58
58 54 47
58 55 17
58 56 48
58 57 21
59 0 10
59 1 52
59 2 3
59 3 13
59 4 39
59 5 80
59 6 40
59 7 34
59 8 43
59 9 60
59 10 13
59 11 40
59 12 75
59 13 55
59 14 4
59 15 42
59 16 6
59 17 78
59 18 28
59 19 50
59 20 29
59 21 16
59 22 13
59 23 17
59 24 53
59 25 45
59 26 18
59 27 5
59 28 39
59 29 1
59 30 59
59 31 62
59 32 27
59 33 32
59 34 31
59 35 79
59 36 22
59 37 31
59 38 28
59 39 6
59 40 52
59 41 7
59 42 39
59 43 57
59 44 42
59 45 55
59 46 34
59 47 10
59 48 12
59 49 13
59 50 76
59 51 2
59 52 61
59 53 21
59 54 6
59 55 63
59 56 21
59 57 10
59 58 55
